n = 15;
m = 55;

max_len = 6;
word_lens = [ 4, 4, 4, 4, 4, 4, 4, 4, 4, 4, 4, 4, 4, 4, 4, 4, 4, 4, 4, 4, 4, 5, 5, 5, 5, 5, 5, 5, 5, 5, 5, 5, 5, 5, 5, 5, 5, 5, 5, 5, 5, 6, 6, 6, 6, 6, 6, 6, 6, 6, 6, 6, 6, 6, 6 ];
words = [| J, A, V, A, E, E | C, O, K, E, E, E | S, E, E, D, E, E | C, O, R, N, E, E | M, I, L, L, E, E | W, I, N, E, E, E | C, O, L, A, E, E | W, E, E, K, E, E | C, A, K, E, E, E | N, O, O, N, E, E | S, O, D, A, E, E | D, A, W, N, E, E | C, H, A, I, E, E | M, I, L, K, E, E | B, E, E, R, E, E | K, H, A, T, E, E | B, R, E, W, E, E | D, I, E, L, E, E | B, E, A, N, E, E | W, O, R, F, E, E | T, R, E, E, E, E | V, E, D, E, K, E | P, L, A, N, T, E | Y, E, M, E, N, E | D, R, I, N, K, E | D, E, C, A, F, E | D, U, K, A, T, E | B, R, O, W, N, E | S, N, A, C, K, E | D, A, I, L, Y, E | C, O, C, O, A, E | T, O, D, A, Y, E | S, U, G, A, R, E | T, R, I, L, L, E | B, R, E, A, D, E | L, A, T, T, E, E | M, O, C, H, A, E | Q, U, A, R, K, E | U, M, B, E, R, E | J, U, I, C, E, E | B, A, J, O, R, E | A, C, I, D, I, C | F, R, I, D, A, Y | Y, O, G, U, R, T | M, O, N, D, A, Y | S, U, N, D, A, Y | T, U, R, K, E, Y | P, E, R, S, I, A | C, O, F, F, E, E | B, A, N, A, N, A | V, E, N, I, C, E | M, O, R, R, O, W | B, O, T, T, L, E | C, A, N, C, E, R | S, U, F, I, S, M |];

pos_var_strat = first_fail;
pos_val_strat = indomain_median;
